/*********************************************
 * OPL 12.6.0.0 Data
 * Author: Adrian Rodriguez Bazaga, Pau Rodriguez Esmerats
 * Creation Date: 30/11/2017 at 21:43:52
 *********************************************/

nNurses=577;
maxConsec=2;
maxPresence=7;
maxHours=5;
minHours=1;
demand= [109 104 157 155 104 157 155 106 105 52 11 13 15 20 20 18 14 14 9 7 115 207 97 168  ];
